(set-logic HORN)
(set-info :source |
    Benchmark: C_VC
    Output by Princess (http://www.philipp.ruemmer.org/princess.shtml)
|)
(set-info :status unknown)
(declare-fun inv_main21 (Int Int Int Int Int Int) Bool)
(declare-fun inv_main23 (Int Int Int Int Int Int) Bool)
(declare-fun inv_main8 (Int Int Int Int Int Int) Bool)
(assert (forall ((var0 Int)) (forall ((var1 Int)) (forall ((var2 Int)) (forall ((var3 Int)) (forall ((var4 Int)) (forall ((var5 Int)) (inv_main8 var4 var2 var0 var5 var1 var3 ) ) ) ) ) ) ) )
(assert (forall ((var0 Int)) (forall ((var1 Int)) (forall ((var2 Int)) (forall ((var3 Int)) (forall ((var4 Int)) (forall ((var5 Int)) (or (not (inv_main21 var2 var4 var0 var1 var5 var3 ) ) (inv_main23 var2 var4 var0 var1 var5 var3 ) ) ) ) ) ) ) ) )
(assert (forall ((var0 Int)) (forall ((var1 Int)) (forall ((var2 Int)) (forall ((var3 Int)) (forall ((var4 Int)) (forall ((var5 Int)) (forall ((var6 Int)) (or (not (and (inv_main8 var3 var5 var0 var2 var6 var4 ) (and (<= 0 (+ (+ var1 1 ) (- 1) ) ) (and (<= 0 (+ var1 (- 1) ) ) (<= 0 (+ (+ 2147483647 (* (- 1) var1 ) ) (- 1) ) ) ) ) ) ) (inv_main21 var1 0 (+ (+ var1 1 ) (- 1) ) 0 0 (+ (+ var1 1 ) (- 1) ) ) ) ) ) ) ) ) ) ) )
(assert (forall ((var0 Int)) (forall ((var1 Int)) (forall ((var2 Int)) (forall ((var3 Int)) (forall ((var4 Int)) (forall ((var5 Int)) (or (not (and (inv_main23 var2 var4 var0 var1 var5 var3 ) (<= 0 (+ var3 (* (- 1) (+ var1 1 ) ) ) ) ) ) (inv_main21 var2 var4 var0 (+ var1 1 ) var5 var3 ) ) ) ) ) ) ) ) )
(assert (forall ((var0 Int)) (forall ((var1 Int)) (forall ((var2 Int)) (forall ((var3 Int)) (forall ((var4 Int)) (forall ((var5 Int)) (not (and (inv_main21 var2 var4 var0 var1 var5 var3 ) (not (<= 0 var1 ) ) ) ) ) ) ) ) ) ) )
(assert (forall ((var0 Int)) (forall ((var1 Int)) (forall ((var2 Int)) (forall ((var3 Int)) (forall ((var4 Int)) (forall ((var5 Int)) (not (and (inv_main23 var2 var4 var0 var1 var5 var3 ) (not (<= 0 (+ (+ (+ var2 1 ) (* (- 1) var1 ) ) (- 1) ) ) ) ) ) ) ) ) ) ) ) )
(check-sat)
